
Gurobi 11.0.3 (linux64) logging started Mon Aug 25 16:45:42 2025

Set parameter LogFile to value "/home/yihong/Coding/OR_SUC/SUC_epstheta_results_bigM100000_thread4/case24_ieee_rts_theta0.001_epsilon0.1_gurobi_seed160000_num_gen100_N_WDR50_load_scaling_factor1_ori_eps_T2quadra_cost_bc1.03.txt"
Set parameter TimeLimit to value 3600
Gurobi Optimizer version 11.0.3 build v11.0.3rc0 (linux64 - "Ubuntu 20.04.6 LTS")

CPU model: AMD EPYC 7532 32-Core Processor, instruction set [SSE2|AVX|AVX2]
Thread count: 64 physical cores, 128 logical processors, using up to 4 threads

Academic license 2399124 - for non-commercial use only - registered to yi___@ed.ac.uk
Optimize a model with 4290 rows, 2531 columns and 107910 nonzeros
Model fingerprint: 0x7cafc7c3
Model has 200 quadratic constraints
Variable types: 2331 continuous, 200 integer (200 binary)
Coefficient statistics:
  Matrix range     [3e-04, 3e+03]
  QMatrix range    [2e-03, 8e-03]
  QLMatrix range   [9e-02, 6e+01]
  Objective range  [1e+00, 1e+00]
  Bounds range     [1e+00, 1e+00]
  RHS range        [5e-02, 8e+03]
Presolve removed 3720 rows and 1281 columns
Presolve time: 0.02s
Presolved: 570 rows, 1250 columns, 4334 nonzeros
Presolved model has 200 quadratic constraint(s)
Variable types: 1050 continuous, 200 integer (200 binary)

Root relaxation: objective 1.850755e+03, 360 iterations, 0.00 seconds (0.00 work units)

    Nodes    |    Current Node    |     Objective Bounds      |     Work
 Expl Unexpl |  Obj  Depth IntInf | Incumbent    BestBd   Gap | It/Node Time

     0     0 1850.75477    0    4          - 1850.75477      -     -    0s
     0     0 2068.67131    0   94          - 2068.67131      -     -    0s
     0     0 19257.1207    0   70          - 19257.1207      -     -    0s
     0     0 19527.9479    0   70          - 19527.9479      -     -    0s
     0     0 30710.7126    0   42          - 30710.7126      -     -    0s
     0     0 30726.4819    0   44          - 30726.4819      -     -    0s
     0     0 30739.2492    0   22          - 30739.2492      -     -    0s
     0     0 30739.5038    0   22          - 30739.5038      -     -    0s
H    0     0                    32102.628446 30739.5038  4.25%     -    0s
     0     0 30739.6595    0   20 32102.6284 30739.6595  4.25%     -    0s
     0     0 30739.7076    0   20 32102.6284 30739.7076  4.25%     -    0s
H    0     0                    31872.441639 30739.7076  3.55%     -    0s
     0     2 30739.7076    0   20 31872.4416 30739.7076  3.55%     -    0s
H  161   155                    30749.193414 30742.3501  0.02%   8.4    0s
*  161   155              18    30749.193414 30742.3501  0.02%   8.4    0s

Cutting planes:
  Gomory: 20
  Implied bound: 92
  MIR: 38
  Flow cover: 113
  RLT: 2

Explored 183 nodes (2971 simplex iterations) in 0.44 seconds (0.36 work units)
Thread count was 4 (of 128 available processors)

Solution count 4: 30749.2 30749.2 31872.4 32102.6 

Optimal solution found (tolerance 1.00e-03)
Warning: max constraint violation (1.4835e-07) exceeds tolerance
Best objective 3.074919341360e+04, best bound 3.074235008179e+04, gap 0.0223%

Gurobi 11.0.3 (linux64) logging started Mon Aug 25 16:45:42 2025

Set parameter LogFile to value "/home/yihong/Coding/OR_SUC/SUC_epstheta_results_bigM100000_thread4/case24_ieee_rts_theta0.001_epsilon0.1_gurobi_seed160000_num_gen100_N_WDR50_load_scaling_factor1_ori_eps_T2quadra_cost_bc1.03.txt"
Set parameter TimeLimit to value 3600
Gurobi Optimizer version 11.0.3 build v11.0.3rc0 (linux64 - "Ubuntu 20.04.6 LTS")

CPU model: AMD EPYC 7532 32-Core Processor, instruction set [SSE2|AVX|AVX2]
Thread count: 64 physical cores, 128 logical processors, using up to 4 threads

Academic license 2399124 - for non-commercial use only - registered to yi___@ed.ac.uk
Optimize a model with 11154 rows, 2532 columns and 850651 nonzeros
Model fingerprint: 0x917c9207
Model has 201 quadratic constraints
Variable types: 2332 continuous, 200 integer (200 binary)
Coefficient statistics:
  Matrix range     [3e-04, 3e+03]
  QMatrix range    [2e-03, 5e+01]
  QLMatrix range   [9e-02, 6e+01]
  Objective range  [1e+00, 1e+00]
  Bounds range     [1e-01, 1e+00]
  RHS range        [8e-02, 3e+04]
  QRHS range       [5e-02, 5e-02]
Presolve removed 3406 rows and 1121 columns
Presolve time: 0.55s
Presolved: 7950 rows, 1612 columns, 171591 nonzeros
Presolved model has 200 quadratic constraint(s)
Presolved model has 1 bilinear constraint(s)
Warning: Model contains variables with very large bounds participating
         in product terms.
         Presolve was not able to compute smaller bounds for these variables.
         Consider bounding these variables or reformulating the model.


Solving non-convex MIQCP

Variable types: 1408 continuous, 204 integer (204 binary)

Root relaxation: objective 0.000000e+00, 809 iterations, 0.08 seconds (0.22 work units)

    Nodes    |    Current Node    |     Objective Bounds      |     Work
 Expl Unexpl |  Obj  Depth IntInf | Incumbent    BestBd   Gap | It/Node Time

     0     0    0.00000    0    4          -    0.00000      -     -    2s
     0     0    0.00000    0    2          -    0.00000      -     -    2s
     0     0    0.00000    0    1          -    0.00000      -     -    2s
H    0     0                       0.0021819    0.00000   100%     -   16s
H    0     0                       0.0020403    0.00000   100%     -   16s
H    0     0                       0.0012494    0.00000   100%     -   16s
H    0     0                       0.0012063    0.00000   100%     -   16s
H    0     0                       0.0012060    0.00000   100%     -   16s
H    0     0                       0.0011228    0.00000   100%     -   16s
H    0     0                       0.0011228    0.00000   100%     -   16s
     0     0    0.00109    0    5    0.00112    0.00109  2.70%     -   16s
     0     0    0.00109    0    3    0.00112    0.00109  2.70%     -   16s
     0     0    0.00109    0    3    0.00112    0.00109  2.70%     -   16s
     0     0    0.00109    0    4    0.00112    0.00109  2.70%     -   16s
H    0     0                       0.0010961    0.00109  0.33%     -   16s
     0     0    0.00109    0    3    0.00110    0.00109  0.33%     -   16s
     0     0    0.00109    0    3    0.00110    0.00109  0.33%     -   16s
     0     0    0.00109    0    3    0.00110    0.00109  0.33%     -   16s
     0     0    0.00109    0    3    0.00110    0.00109  0.33%     -   16s
H    0     0                       0.0010927    0.00109  0.02%     -   16s

Cutting planes:
  Gomory: 1
  Implied bound: 3
  MIR: 3
  Flow cover: 1

Explored 1 nodes (1681 simplex iterations) in 16.88 seconds (12.76 work units)
Thread count was 4 (of 128 available processors)

Solution count 9: 0.00109271 0.00109611 0.00112281 ... 0.00218191

Optimal solution found (tolerance 1.00e-03)
Best objective 1.092713991880e-03, best bound 1.092508336433e-03, gap 0.0188%
